p edges 170 444
e 1 8
e 1 16
e 1 41
e 1 91
e 1 105
e 1 168
e 2 11
e 2 24
e 2 32
e 2 145
e 2 149
e 2 167
e 3 148
e 4 17
e 4 42
e 4 81
e 4 102
e 4 142
e 4 144
e 4 152
e 4 158
e 5 36
e 5 56
e 5 67
e 5 110
e 5 168
e 6 48
e 6 109
e 7 84
e 7 149
e 8 48
e 8 71
e 8 76
e 8 150
e 8 167
e 9 99
e 9 130
e 9 144
e 10 13
e 10 41
e 10 57
e 10 77
e 10 151
e 10 155
e 10 158
e 11 50
e 11 73
e 11 92
e 11 152
e 11 156
e 11 160
e 12 30
e 12 71
e 12 125
e 13 57
e 13 118
e 13 140
e 14 32
e 14 71
e 14 162
e 15 37
e 15 39
e 15 41
e 15 53
e 15 88
e 15 101
e 16 52
e 16 74
e 16 140
e 16 147
e 16 148
e 16 164
e 17 47
e 17 134
e 17 162
e 18 19
e 18 30
e 18 53
e 18 97
e 18 100
e 18 105
e 18 108
e 18 115
e 19 21
e 19 97
e 19 98
e 19 109
e 19 159
e 20 73
e 20 74
e 20 82
e 20 166
e 20 170
e 21 40
e 21 45
e 21 57
e 21 67
e 21 85
e 21 87
e 21 116
e 22 60
e 22 92
e 22 125
e 22 130
e 22 143
e 23 29
e 23 35
e 23 38
e 23 43
e 23 88
e 23 127
e 23 131
e 23 165
e 24 87
e 24 132
e 24 153
e 25 42
e 25 67
e 26 49
e 26 50
e 26 52
e 26 96
e 26 97
e 26 135
e 26 156
e 27 28
e 27 66
e 27 119
e 27 130
e 28 44
e 28 70
e 28 110
e 28 137
e 28 142
e 29 102
e 29 109
e 29 124
e 29 159
e 30 42
e 30 52
e 31 86
e 31 108
e 32 47
e 32 50
e 32 89
e 32 115
e 33 48
e 33 61
e 33 111
e 33 169
e 34 97
e 34 102
e 34 114
e 34 117
e 34 139
e 35 62
e 35 76
e 35 86
e 35 103
e 35 107
e 35 141
e 36 59
e 36 87
e 36 154
e 37 72
e 37 86
e 37 103
e 37 126
e 37 133
e 37 155
e 38 41
e 38 59
e 38 90
e 38 107
e 38 108
e 39 61
e 39 110
e 39 133
e 39 163
e 40 72
e 40 81
e 40 100
e 40 123
e 40 131
e 41 51
e 41 82
e 41 139
e 42 60
e 42 65
e 42 67
e 42 90
e 42 106
e 42 170
e 43 62
e 43 86
e 43 96
e 43 149
e 43 161
e 44 46
e 44 60
e 45 88
e 45 111
e 45 116
e 45 121
e 45 144
e 46 90
e 46 91
e 46 160
e 47 79
e 47 156
e 48 56
e 48 78
e 48 93
e 48 106
e 48 111
e 48 124
e 48 130
e 48 161
e 49 52
e 49 58
e 49 59
e 49 94
e 49 105
e 49 110
e 49 122
e 50 105
e 51 77
e 51 108
e 51 147
e 52 64
e 52 71
e 52 83
e 53 126
e 53 130
e 53 153
e 54 66
e 54 115
e 54 124
e 54 154
e 54 156
e 54 169
e 55 89
e 55 106
e 55 109
e 56 103
e 56 164
e 57 78
e 57 85
e 58 117
e 58 138
e 58 159
e 59 98
e 60 74
e 60 149
e 61 98
e 62 73
e 62 83
e 62 109
e 62 110
e 62 118
e 62 124
e 63 72
e 63 101
e 63 165
e 64 73
e 64 77
e 64 82
e 64 121
e 64 137
e 64 140
e 64 141
e 65 131
e 65 135
e 65 137
e 66 90
e 67 71
e 67 87
e 67 92
e 67 117
e 68 69
e 68 91
e 68 120
e 68 144
e 69 81
e 69 130
e 69 157
e 69 164
e 70 76
e 70 110
e 70 125
e 70 131
e 70 144
e 71 107
e 71 115
e 72 77
e 72 107
e 72 120
e 72 134
e 72 150
e 73 113
e 74 99
e 74 140
e 74 156
e 74 157
e 74 160
e 75 80
e 75 100
e 75 102
e 75 118
e 75 122
e 75 124
e 75 131
e 75 145
e 76 122
e 76 128
e 76 133
e 76 170
e 77 85
e 77 106
e 77 129
e 78 96
e 78 143
e 78 150
e 78 160
e 80 123
e 80 145
e 81 109
e 81 119
e 82 152
e 83 93
e 83 101
e 83 107
e 84 85
e 84 107
e 84 127
e 84 146
e 85 109
e 86 128
e 86 142
e 87 97
e 87 105
e 87 125
e 87 128
e 87 129
e 87 131
e 87 146
e 87 153
e 88 150
e 88 168
e 89 97
e 89 129
e 89 144
e 89 153
e 91 127
e 91 148
e 91 163
e 92 114
e 92 143
e 92 163
e 93 150
e 93 167
e 94 114
e 94 170
e 95 108
e 95 113
e 95 154
e 96 111
e 97 163
e 99 114
e 99 152
e 99 161
e 100 166
e 101 108
e 101 117
e 101 139
e 101 141
e 101 162
e 102 113
e 102 144
e 102 149
e 103 162
e 104 151
e 105 161
e 106 131
e 106 151
e 107 156
e 108 111
e 108 115
e 108 143
e 109 110
e 109 138
e 110 163
e 111 114
e 111 137
e 116 121
e 116 129
e 117 119
e 117 120
e 117 164
e 118 165
e 119 124
e 119 127
e 119 131
e 119 146
e 119 151
e 120 122
e 121 149
e 121 159
e 122 168
e 122 170
e 125 128
e 125 132
e 126 130
e 126 161
e 128 146
e 128 155
e 129 156
e 129 161
e 130 131
e 130 146
e 131 133
e 131 166
e 132 139
e 132 156
e 134 136
e 134 163
e 135 151
e 136 168
e 137 163
e 138 150
e 140 149
e 140 165
e 142 150
e 142 156
e 143 161
e 145 170
e 148 156
e 149 157
e 150 157
e 156 163
e 158 159
e 160 161
e 166 170
e 167 169
